p cnf 1002 1300
c ind 668 673 674 675 676 677 679 680 681 682 0
c ind 683 684 685 686 687 688 689 690 691 692 0
c ind 693 694 695 696 697 698 703 704 710 711 0
c ind 712 713 714 715 716 717 718 719 720 721 0
c ind 722 723 724 733 734 735 736 739 740 741 0
c ind 742 743 744 747 748 749 750 751 752 761 0
c ind 762 763 764 767 768 769 770 771 772 775 0
c ind 776 777 778 779 780 781 782 783 784 785 0
c ind 787 788 789 790 791 792 793 794 795 796 0
c ind 797 798 799 800 801 802 803 804 805 806 0
c ind 807 809 811 812 813 814 815 816 817 818 0
c ind 819 820 824 825 826 827 828 830 832 833 0
c ind 834 835 836 837 838 839 840 841 847 848 0
c ind 859 860 861 862 864 865 867 869 873 878 0
c ind 879 880 881 882 883 884 885 886 887 888 0
c ind 889 890 891 892 893 895 897 898 901 902 0
c ind 903 904 905 909 910 911 912 913 916 917 0
c ind 918 919 920 921 922 923 924 925 926 927 0
c ind 930 931 932 933 934 938 939 940 941 942 0
c ind 946 947 948 949 950 953 954 955 956 958 0
c ind 960 961 962 964 993 978 973 1000 969 977 0
c ind 972 999 968 982 983 991 992 981 985 990 0
c ind 987 976 669 670 971 984 986 995 967 980 0
c ind 989 998 965 975 970 979 988 997 678 963 0
c ind 974 994 966 846 996 843 844 845 786 671 0
c ind 959 672 957 951 952 945 943 944 937 935 0
c ind 936 914 915 929 908 906 907 928 899 900 0
c ind 894 896 866 868 874 875 876 877 871 872 0
c ind 829 831 852 853 855 856 857 858 849 850 0
c ind 851 854 863 870 823 821 822 842 808 810 0
c ind 667 699 702 700 701 707 709 706 708 705 0
c ind 765 766 760 773 774 756 738 745 746 753 0
c ind 754 755 757 758 732 759 725 728 737 726 0
c ind 727 729 730 731 1 0
c ret 609 610 611 612 613 614 615 616 617 618 0
c ret 619 620 621 622 623 624 625 626 627 628 0
c ret 629 630 631 632 633 634 635 304 310 636 0
c ret 311 637 312 638 313 639 314 315 316 317 0
c ret 318 640 319 320 321 322 323 324 325 641 0
c ret 326 642 327 328 643 329 330 644 331 332 0
c ret 645 333 334 335 646 336 337 647 338 339 0
c ret 340 648 649 341 342 343 344 345 346 305 0
c ret 347 348 349 350 650 351 651 352 353 652 0
c ret 653 354 355 356 654 357 358 359 360 361 0
c ret 655 362 363 656 364 365 657 366 658 367 0
c ret 368 369 370 371 372 659 660 373 374 375 0
c ret 376 661 377 378 379 380 381 382 383 384 0
c ret 662 385 386 387 306 388 663 389 664 390 0
c ret 391 665 392 666 393 394 395 396 397 398 0
c ret 399 400 401 402 403 404 405 406 407 408 0
c ret 409 410 411 412 413 414 415 416 417 418 0
c ret 419 420 421 422 423 424 425 426 427 307 0
c ret 428 429 430 431 432 433 434 435 436 437 0
c ret 438 439 440 441 442 443 444 445 446 447 0
c ret 448 449 450 451 452 453 454 455 456 457 0
c ret 458 459 460 461 462 463 464 465 466 467 0
c ret 468 469 470 471 472 473 474 475 476 477 0
c ret 478 479 480 481 482 483 484 485 486 487 0
c ret 488 489 490 491 492 493 494 495 496 497 0
c ret 498 308 499 500 501 502 503 504 505 506 0
c ret 507 508 509 510 511 512 513 514 515 516 0
c ret 517 518 519 520 521 522 523 524 525 526 0
c ret 527 528 529 530 531 532 533 534 535 536 0
c ret 537 309 538 539 540 541 542 543 544 545 0
c ret 546 547 548 549 550 551 552 553 554 555 0
c ret 556 557 558 559 560 561 562 563 564 565 0
c ret 566 567 568 569 570 571 572 573 574 575 0
c ret 576 577 578 579 580 581 582 583 584 585 0
c ret 586 587 588 589 590 591 592 593 594 595 0
c ret 596 597 598 599 600 601 602 603 604 605 0
c ret 606 607 608 0
2 4 5 -300 0
2 3 5 -300 0
-2 300 0
-2 -5 0
-2 -3 -4 0
3 536 0
3 -537 543 0
3 537 544 0
-3 -536 537 -544 0
-3 -536 -537 -543 0
4 536 0
4 -537 -543 0
4 537 -544 0
-4 -536 537 544 0
-4 -536 -537 543 0
5 6 65 113 -134 0
5 -6 -65 113 -134 0
-5 -113 0
-5 6 -65 0
-5 134 0
-5 -6 65 0
6 -7 -22 0
6 -7 59 0
-6 7 0
-6 22 -59 0
7 8 14 0
-7 -8 0
-7 -14 0
8 -10 -11 0
8 -9 -11 0
-8 11 0
-8 9 10 0
9 899 0
9 -900 -906 0
9 900 -907 0
-9 -899 900 907 0
-9 -899 -900 906 0
-9 10 0
10 -908 914 0
10 908 915 0
9 -10 -908 -914 0
9 -10 908 -915 0
11 -12 -13 0
-9 11 -13 0
-11 13 0
9 -11 12 0
-9 12 0
12 908 -915 0
12 -908 -914 0
9 -12 -908 914 0
9 -12 908 915 0
13 899 0
13 -900 906 0
13 900 907 0
-13 -899 900 -907 0
-13 -899 -900 -906 0
14 -15 -16 0
14 -15 -17 -20 0
-14 15 0
-14 16 20 0
-14 16 17 0
15 928 0
15 -929 935 0
15 929 936 0
-15 -928 929 -936 0
-15 -928 -929 -935 0
16 928 0
16 -929 -935 0
16 929 -936 0
-16 -928 929 936 0
-16 -928 -929 935 0
17 18 0
17 945 -952 0
17 -945 -951 0
-17 -18 945 952 0
-17 -18 -945 951 0
16 18 -19 0
-16 -18 0
-18 19 0
19 937 944 0
19 -937 943 0
-19 -937 -943 0
-19 937 -944 0
-19 20 -21 0
19 -20 0
-20 21 0
18 21 0
21 -945 951 0
21 945 952 0
-18 -21 -945 -951 0
-18 -21 945 -952 0
22 -23 -58 -978 0
22 23 -24 -58 0
-22 58 0
-22 -23 978 0
-22 23 24 0
23 894 -896 0
-23 -894 0
-23 896 0
24 -25 -977 0
24 25 -26 0
-24 -25 977 0
-24 25 26 0
25 866 -868 0
-25 -866 0
-25 868 0
26 27 50 57 0
26 27 50 -53 0
-26 -27 0
-26 -50 0
-26 53 -57 0
27 -48 667 -842 0
27 28 667 842 0
-27 -667 0
-27 48 -842 0
-27 -28 842 0
28 -29 -974 0
-28 974 0
-28 29 0
29 -30 44 0
-29 30 0
-29 -44 0
30 31 -43 0
30 31 37 -732 0
-30 -31 0
-30 -37 43 0
-30 43 732 0
31 33 36 0
31 33 -35 0
31 32 33 0
-31 -33 0
-31 -32 35 -36 0
32 754 755 756 0
-32 -754 0
-32 -756 0
-32 -755 0
32 33 -753 0
33 34 -753 -759 0
-33 753 0
-32 -33 759 0
-32 -33 -34 0
34 757 -758 0
-34 -757 0
-34 758 0
35 765 766 0
35 765 773 774 0
-35 -765 0
-35 -766 -773 0
-35 -766 -774 0
34 36 -753 759 -760 0
-36 760 0
-34 -36 0
-36 753 0
-36 -759 0
37 38 0
37 41 -731 0
37 41 737 0
-37 -38 -41 0
-37 -38 731 -737 0
38 -39 40 -725 -732 0
-38 39 0
-38 -40 0
-38 725 0
-38 732 0
39 726 727 728 0
-39 -726 0
-39 -728 0
-39 -727 0
40 729 -730 0
-40 -729 0
-40 730 0
41 42 731 737 -738 0
-41 -731 0
-41 -42 0
-41 738 0
-41 -737 0
42 745 746 0
-42 -745 0
-42 -746 0
39 43 -725 0
40 43 -725 -731 0
-43 725 0
-39 -43 731 0
-39 -40 -43 0
44 -45 -699 0
44 -47 -699 0
44 -46 -699 0
-44 699 0
-44 45 46 47 0
45 -700 701 702 0
-45 700 0
-45 -702 0
-45 -701 0
46 705 708 709 0
-46 -705 0
-46 -709 0
-46 -708 0
47 -705 706 707 0
-47 705 0
-47 -707 0
-47 -706 0
48 -49 975 0
28 48 49 0
-48 -49 -975 0
-28 -48 49 0
49 808 -810 0
-49 -808 0
-49 810 0
50 -51 -52 -852 0
50 -51 -52 -853 0
-50 52 0
-50 51 0
-50 852 853 0
51 855 856 857 858 0
-51 -858 0
-51 -857 0
-51 -855 0
-51 -856 0
52 -849 -850 -851 854 0
-52 851 0
-52 -854 0
-52 849 0
-52 850 0
48 53 -54 0
-48 -53 0
-53 54 0
54 55 56 0
-54 -55 0
-54 -56 0
55 829 -831 0
-55 -829 0
-55 831 0
56 821 822 823 0
-56 -821 0
-56 -823 0
-56 -822 0
55 57 -667 0
57 -667 976 0
-57 667 0
-55 -57 -976 0
58 -863 870 0
-58 863 0
-58 -870 0
59 -60 -863 0
24 26 59 0
24 59 -863 0
26 59 -60 0
-26 -59 863 0
-24 -59 60 0
60 62 870 0
60 -61 62 0
60 62 863 0
-60 -62 0
-60 61 -863 -870 0
61 -871 872 0
-61 871 0
-61 -872 0
62 63 -64 0
-62 -63 0
-62 64 0
63 874 -875 -876 877 0
-63 -874 0
-63 -877 0
-63 876 0
-63 875 0
64 -863 -870 -871 872 0
-64 871 0
-64 -872 0
-64 863 0
-64 870 0
65 -66 -68 0
65 -66 107 0
-65 66 0
-65 68 -107 0
4 66 -67 0
3 66 -67 0
-66 67 0
-3 -4 -66 0
67 -565 -594 0
-67 565 0
-67 594 0
68 -69 -106 -644 0
68 69 -70 -106 0
-68 106 0
-68 -69 644 0
-68 69 70 0
69 531 -533 0
-69 -531 0
-69 533 0
70 -71 -643 0
70 71 -72 0
-70 -71 643 0
-70 71 72 0
71 503 -505 0
-71 -503 0
-71 505 0
72 73 98 105 0
72 73 98 -101 0
-72 -73 0
-72 -98 0
-72 101 -105 0
73 -96 304 -479 0
73 74 304 479 0
-73 -304 0
-73 96 -479 0
-73 -74 479 0
74 -75 -640 0
-74 640 0
-74 75 0
75 76 -80 0
-75 -76 0
-75 80 0
76 -77 -336 0
76 -79 -336 0
76 -78 -336 0
-76 336 0
-76 77 78 79 0
77 -337 338 339 0
-77 337 0
-77 -339 0
-77 -338 0
78 342 345 346 0
-78 -342 0
-78 -346 0
-78 -345 0
79 -342 343 344 0
-79 342 0
-79 -344 0
-79 -343 0
80 81 -88 0
80 81 91 -369 0
-80 -81 0
-80 88 -91 0
-80 88 369 0
81 -82 85 0
81 85 390 0
-81 -85 0
-81 82 -390 0
82 -84 393 396 0
82 -83 -84 393 0
-82 -393 0
-82 84 0
-82 83 -396 0
83 394 -395 0
-83 -394 0
-83 395 0
84 391 392 0
-84 -391 0
-84 -392 0
83 -84 85 86 -87 0
84 -85 0
-85 -86 0
-83 -85 0
-85 87 0
86 402 403 0
86 402 410 411 0
-86 -402 0
-86 -403 -410 0
-86 -403 -411 0
87 -390 393 396 -397 0
-87 397 0
-87 -396 0
-87 390 0
-87 -393 0
88 89 -362 0
88 90 -362 -368 0
-88 362 0
-88 -89 368 0
-88 -89 -90 0
89 363 364 365 0
-89 -363 0
-89 -365 0
-89 -364 0
90 366 -367 0
-90 -366 0
-90 367 0
91 92 94 0
-91 -92 0
-91 -94 0
92 -93 368 -374 0
-92 93 0
-92 374 0
-92 -368 0
-89 90 93 -362 -369 0
89 -93 0
-90 -93 0
-93 362 0
-93 369 0
-93 94 -95 -382 0
-93 94 -95 -383 0
-94 95 0
93 -94 0
-94 382 383 0
95 368 374 -375 0
-95 375 0
-95 -374 0
-95 -368 0
96 -97 641 0
74 96 97 0
-96 -97 -641 0
-74 -96 97 0
97 445 -447 0
-97 -445 0
-97 447 0
98 -99 -100 -489 0
98 -99 -100 -490 0
-98 100 0
-98 99 0
-98 489 490 0
99 492 493 494 495 0
-99 -495 0
-99 -494 0
-99 -492 0
-99 -493 0
100 -486 -487 -488 491 0
-100 488 0
-100 -491 0
-100 486 0
-100 487 0
96 101 -102 0
-96 -101 0
-101 102 0
102 103 104 0
-102 -103 0
-102 -104 0
103 458 459 460 0
-103 -458 0
-103 -460 0
-103 -459 0
104 466 -468 0
-104 -466 0
-104 468 0
104 105 -304 0
105 -304 642 0
-105 304 0
-104 -105 -642 0
106 -500 507 0
-106 500 0
-106 -507 0
107 -108 -500 0
70 72 107 0
70 107 -500 0
72 107 -108 0
-72 -107 500 0
-70 -107 108 0
108 110 507 0
108 -109 110 0
108 110 500 0
-108 -110 0
-108 109 -500 -507 0
109 -508 509 0
-109 508 0
-109 -509 0
110 111 -112 0
-110 -111 0
-110 112 0
111 511 -512 -513 514 0
-111 -511 0
-111 -514 0
-111 513 0
-111 512 0
112 -500 -507 -508 509 0
-112 508 0
-112 -509 0
-112 500 0
-112 507 0
113 114 -124 0
-113 -114 0
-113 124 0
-7 114 -115 0
-7 114 123 0
7 -114 0
-114 115 -123 0
23 -58 115 -116 0
-23 -58 115 -1000 0
58 -115 0
23 -115 116 0
-23 -115 1000 0
-25 116 -999 0
25 116 -117 0
-25 -116 999 0
25 -116 117 0
50 117 118 122 0
50 117 118 -121 0
-50 -117 0
-117 -118 0
-117 121 -122 0
118 -120 667 -842 0
118 119 667 842 0
-118 -667 0
-118 120 -842 0
-118 -119 842 0
-29 119 -996 0
-119 996 0
29 -119 0
-49 120 997 0
49 119 120 0
-49 -120 -997 0
49 -119 -120 0
-54 120 121 0
54 -121 0
-120 -121 0
55 122 -667 0
122 -667 998 0
-122 667 0
-55 -122 -998 0
-60 117 123 0
116 123 -863 0
-60 123 -863 0
116 117 123 0
60 -116 -123 0
-117 -123 863 0
-66 124 -125 0
-66 124 133 0
66 -124 0
-124 125 -133 0
69 -106 125 -126 0
-69 -106 125 -666 0
106 -125 0
69 -125 126 0
-69 -125 666 0
-71 126 -665 0
71 126 -127 0
-71 -126 665 0
71 -126 127 0
98 127 128 132 0
98 127 128 -131 0
-98 -127 0
-127 -128 0
-127 131 -132 0
128 -130 304 -479 0
128 129 304 479 0
-128 -304 0
-128 130 -479 0
-128 -129 479 0
-75 129 -662 0
-129 662 0
75 -129 0
-97 130 663 0
97 129 130 0
-97 -130 -663 0
97 -129 -130 0
-102 130 131 0
102 -131 0
-130 -131 0
104 132 -304 0
132 -304 664 0
-132 304 0
-104 -132 -664 0
-108 127 133 0
126 133 -500 0
-108 133 -500 0
126 127 133 0
108 -126 -133 0
-127 -133 500 0
114 134 -135 -174 0
-124 134 -135 -174 0
-134 174 0
-134 135 0
-114 124 -134 0
135 -136 -145 -164 0
135 136 145 154 0
135 136 145 -164 0
135 -136 -145 154 0
-135 136 -145 0
-135 -136 145 0
-135 -154 164 0
-7 136 -137 0
-7 136 144 0
7 -136 0
-136 137 -144 0
23 -58 137 -138 0
-23 -58 137 -973 0
58 -137 0
23 -137 138 0
-23 -137 973 0
-25 138 -972 0
25 138 -139 0
-25 -138 972 0
25 -138 139 0
50 139 140 143 0
50 139 140 -142 0
-50 -139 0
-139 -140 0
-139 142 -143 0
140 -141 667 -842 0
29 140 667 842 0
-140 -667 0
-140 141 -842 0
-29 -140 842 0
-49 141 970 0
29 49 141 0
-49 -141 -970 0
-29 49 -141 0
-54 141 142 0
54 -142 0
-141 -142 0
55 143 -667 0
143 -667 971 0
-143 667 0
-55 -143 -971 0
-60 139 144 0
138 144 -863 0
-60 144 -863 0
138 139 144 0
60 -138 -144 0
-139 -144 863 0
-66 145 -146 0
-66 145 153 0
66 -145 0
-145 146 -153 0
69 -106 146 -147 0
-69 -106 146 -639 0
106 -146 0
69 -146 147 0
-69 -146 639 0
-71 147 -638 0
71 147 -148 0
-71 -147 638 0
71 -147 148 0
98 148 149 152 0
98 148 149 -151 0
-98 -148 0
-148 -149 0
-148 151 -152 0
149 -150 304 -479 0
75 149 304 479 0
-149 -304 0
-149 150 -479 0
-75 -149 479 0
-97 150 636 0
75 97 150 0
-97 -150 -636 0
-75 97 -150 0
-102 150 151 0
102 -151 0
-150 -151 0
104 152 -304 0
152 -304 637 0
-152 304 0
-104 -152 -637 0
-108 148 153 0
147 153 -500 0
-108 153 -500 0
147 148 153 0
108 -147 -153 0
-148 -153 500 0
-7 154 -155 0
-7 154 163 0
7 -154 0
-154 155 -163 0
23 -58 155 -156 0
-23 -58 155 -969 0
58 -155 0
23 -155 156 0
-23 -155 969 0
-25 156 -968 0
25 156 -157 0
-25 -156 968 0
25 -156 157 0
50 157 158 162 0
50 157 158 -161 0
-50 -157 0
-157 -158 0
-157 161 -162 0
158 159 -667 967 0
55 158 159 -667 0
-158 667 0
-158 -159 0
-55 -158 -967 0
-54 159 160 0
54 -159 0
-159 -160 0
29 49 160 0
-49 160 966 0
49 160 672 0
-49 -160 -966 0
-29 49 -160 -672 0
-29 49 161 -672 0
-29 161 -672 842 0
29 -161 0
-161 672 0
-49 -161 -842 0
162 667 966 0
162 667 842 0
49 162 667 0
-162 -667 0
-49 -162 -842 -966 0
-60 157 163 0
156 163 -863 0
-60 163 -863 0
156 157 163 0
60 -156 -163 0
-157 -163 863 0
-66 164 -165 0
-66 164 173 0
66 -164 0
-164 165 -173 0
69 -106 165 -166 0
-69 -106 165 -635 0
106 -165 0
69 -165 166 0
-69 -165 635 0
-71 166 -634 0
71 166 -167 0
-71 -166 634 0
71 -166 167 0
98 167 168 172 0
98 167 168 -171 0
-98 -167 0
-167 -168 0
-167 171 -172 0
168 169 -304 633 0
104 168 169 -304 0
-168 304 0
-168 -169 0
-104 -168 -633 0
-102 169 170 0
102 -169 0
-169 -170 0
75 97 170 0
-97 170 632 0
97 170 309 0
-97 -170 -632 0
-75 97 -170 -309 0
-75 97 171 -309 0
-75 171 -309 479 0
75 -171 0
-171 309 0
-97 -171 -479 0
172 304 632 0
172 304 479 0
97 172 304 0
-172 -304 0
-97 -172 -479 -632 0
-108 167 173 0
166 173 -500 0
-108 173 -500 0
166 167 173 0
108 -166 -173 0
-167 -173 500 0
-154 174 -175 -242 0
164 174 -175 -242 0
-174 242 0
-174 175 0
154 -164 -174 0
175 -188 -200 0
175 176 -200 0
-175 200 0
-175 -176 188 0
-66 176 177 187 0
-66 176 177 185 0
66 -176 0
-176 -177 0
-176 -185 -187 0
177 179 500 0
71 177 178 179 0
-177 -179 0
-177 -178 -500 0
-71 -177 -500 0
-69 178 507 -653 0
69 -178 0
-178 653 0
-178 -507 0
98 179 180 184 0
98 179 180 -183 0
-98 -179 0
-179 -180 0
-179 183 -184 0
180 -182 304 -479 0
180 181 304 479 0
-180 -304 0
-180 182 -479 0
-180 -181 479 0
-75 181 -308 0
-181 308 0
75 -181 0
-97 182 650 0
97 181 182 0
-97 -182 -650 0
97 -181 -182 0
-102 182 183 0
102 -183 0
-182 -183 0
104 184 -304 0
184 -304 651 0
-184 304 0
-104 -184 -651 0
-71 185 -500 0
185 -186 -500 0
-185 500 0
71 -185 186 0
-69 110 186 507 0
-109 110 186 -507 0
-110 -186 0
109 -186 -507 0
69 -186 507 0
178 -186 187 0
178 187 652 0
-178 -187 0
186 -187 -652 0
-7 188 189 199 0
-7 188 189 197 0
7 -188 0
-188 -189 0
-188 -197 -199 0
189 191 863 0
25 189 190 191 0
-189 -191 0
-189 -190 -863 0
-25 -189 -863 0
-23 190 870 -987 0
23 -190 0
-190 987 0
-190 -870 0
50 191 192 196 0
50 191 192 -195 0
-50 -191 0
-191 -192 0
-191 195 -196 0
192 -194 667 -842 0
192 193 667 842 0
-192 -667 0
-192 194 -842 0
-192 -193 842 0
-29 193 -671 0
-193 671 0
29 -193 0
-49 194 984 0
49 193 194 0
-49 -194 -984 0
49 -193 -194 0
-54 194 195 0
54 -195 0
-194 -195 0
55 196 -667 0
196 -667 985 0
-196 667 0
-55 -196 -985 0
-25 197 -863 0
197 -198 -863 0
-197 863 0
25 -197 198 0
-23 62 198 870 0
-61 62 198 -870 0
-62 -198 0
61 -198 -870 0
23 -198 870 0
190 -198 199 0
190 199 986 0
-190 -199 0
198 -199 -986 0
200 -213 233 0
200 201 -224 0
200 -213 -224 0
200 201 233 0
-200 224 -233 0
-200 -201 213 0
201 -202 -203 0
201 -202 -211 0
201 -202 -210 0
-201 202 0
-201 203 210 211 0
8 202 -928 0
-202 928 0
-8 -202 0
203 206 -207 0
-54 203 204 -207 0
-203 207 0
-203 -204 -206 0
54 -203 -206 0
-49 204 989 0
49 204 205 0
-49 -204 -989 0
49 -204 -205 0
-29 205 -988 0
-205 988 0
29 -205 0
55 206 -667 0
206 -667 990 0
-206 667 0
-55 -206 -990 0
207 208 -209 0
-207 -208 0
-207 209 0
-204 208 667 -842 0
205 208 667 842 0
-208 -667 0
204 -208 -842 0
-205 -208 842 0
50 197 209 0
-50 -209 0
-197 -209 0
-23 -58 210 -992 0
-210 992 0
23 -210 0
58 -210 0
-25 211 -212 -991 0
-211 991 0
25 -211 0
-211 212 0
198 212 -863 0
-212 863 0
-198 -212 0
-66 213 -214 0
-66 213 -222 0
-66 213 -221 0
66 -213 0
-213 214 221 222 0
214 217 -218 0
-102 214 215 -218 0
-214 218 0
-214 -215 -217 0
102 -214 -217 0
-97 215 655 0
97 215 216 0
-97 -215 -655 0
97 -215 -216 0
-75 216 -654 0
-216 654 0
75 -216 0
104 217 -304 0
217 -304 656 0
-217 304 0
-104 -217 -656 0
218 219 -220 0
-218 -219 0
-218 220 0
-215 219 304 -479 0
216 219 304 479 0
-219 -304 0
215 -219 -479 0
-216 -219 479 0
98 185 220 0
-98 -220 0
-185 -220 0
-69 -106 221 -658 0
-221 658 0
69 -221 0
106 -221 0
-71 222 -223 -657 0
-222 657 0
71 -222 0
-222 223 0
186 223 -500 0
-223 500 0
-186 -223 0
-202 224 -225 0
-202 224 -232 0
-202 224 -231 0
202 -224 0
-224 225 231 232 0
225 228 -229 0
-54 225 226 -229 0
-225 229 0
-225 -226 -228 0
54 -225 -228 0
-49 226 980 0
49 226 227 0
-49 -226 -980 0
49 -226 -227 0
-29 227 -979 0
-227 979 0
29 -227 0
55 228 -667 0
228 -667 981 0
-228 667 0
-55 -228 -981 0
-209 229 230 0
209 -229 0
-229 -230 0
-226 230 667 -842 0
227 230 667 842 0
-230 -667 0
226 -230 -842 0
-227 -230 842 0
-23 -58 231 -983 0
-231 983 0
23 -231 0
58 -231 0
-25 -212 232 -982 0
-232 982 0
25 -232 0
212 -232 0
-66 233 -234 0
-66 233 -241 0
-66 233 -240 0
66 -233 0
-233 234 240 241 0
234 237 -238 0
-102 234 235 -238 0
-234 238 0
-234 -235 -237 0
102 -234 -237 0
-97 235 646 0
97 235 236 0
-97 -235 -646 0
97 -235 -236 0
-75 236 -645 0
-236 645 0
75 -236 0
104 237 -304 0
237 -304 647 0
-237 304 0
-104 -237 -647 0
-220 238 239 0
220 -238 0
-238 -239 0
-235 239 304 -479 0
236 239 304 479 0
-239 -304 0
235 -239 -479 0
-236 -239 479 0
-69 -106 240 -649 0
-240 649 0
69 -240 0
106 -240 0
-71 -223 241 -648 0
-241 648 0
71 -241 0
223 -241 0
-176 242 -243 -299 0
188 242 -243 -299 0
-242 299 0
-242 243 0
176 -188 -242 0
243 244 257 -268 -281 0
243 -244 -257 -268 -281 0
-243 281 0
-243 -244 257 0
-243 268 0
-243 244 -257 0
244 245 -251 -256 0
244 245 -251 304 0
-244 251 0
-244 -245 0
-244 256 -304 0
245 246 250 0
245 248 250 0
245 246 -248 304 0
-245 -246 -248 0
-245 248 -250 0
-245 -250 -304 0
-80 246 -623 0
76 -80 246 247 0
80 -246 0
-246 -247 623 0
-76 -246 623 0
247 315 660 0
-247 -315 0
-247 -660 0
248 -249 479 480 0
-248 249 0
-248 -480 0
-248 -479 0
249 481 482 483 0
-249 -481 0
-249 -483 0
-249 -482 0
250 423 -661 0
-246 250 -423 0
246 -250 -423 0
-250 423 661 0
-67 251 252 -255 0
67 -251 0
-251 -252 0
-251 255 0
-3 252 254 536 0
-3 252 -253 254 0
3 -252 0
-252 -254 0
-252 253 -536 0
-4 253 0
253 -545 551 0
253 545 552 0
4 -253 -545 -551 0
4 -253 545 -552 0
4 254 -545 551 0
4 254 545 552 0
-4 -254 0
-254 545 -552 0
-254 -545 -551 0
98 112 255 0
98 111 255 0
-98 -255 0
-111 -112 -255 0
103 -250 256 0
-103 -256 0
250 -256 0
257 258 -265 667 0
257 258 -264 -265 0
-257 265 0
-257 -258 0
-257 264 -667 0
258 259 263 0
258 261 263 0
258 259 -261 667 0
-258 -259 -261 0
-258 261 -263 0
-258 -263 -667 0
-30 259 -957 0
-30 44 259 260 0
30 -259 0
-259 -260 957 0
-44 -259 957 0
260 678 994 0
-260 -678 0
-260 -994 0
261 -262 842 843 0
-261 262 0
-261 -843 0
-261 -842 0
262 844 845 846 0
-262 -844 0
-262 -846 0
-262 -845 0
263 786 -995 0
-259 263 -786 0
259 -263 -786 0
-263 786 995 0
56 -263 264 0
-56 -264 0
263 -264 0
14 265 -266 -267 0
11 14 265 -266 0
-265 266 0
-14 -265 0
-11 -265 267 0
50 64 266 0
50 63 266 0
-50 -266 0
-63 -64 -266 0
10 267 -899 0
-267 899 0
-10 -267 0
268 269 272 274 -276 0
268 -269 -272 274 -276 0
-268 -274 0
-268 269 -272 0
-268 276 0
-268 -269 272 0
-80 -251 269 270 -271 0
-269 271 0
80 -269 0
251 -269 0
-269 -270 0
-103 270 -304 0
-270 304 0
103 -270 0
271 -623 625 0
-271 623 0
-271 -625 0
-265 272 -273 667 0
56 -265 272 -273 0
-272 273 0
265 -272 0
-56 -272 -667 0
-30 273 -957 959 0
-273 957 0
-273 -959 0
30 -273 0
-15 -17 -21 274 275 0
21 -274 0
-274 -275 0
15 -274 0
17 -274 0
16 19 275 0
-16 -275 0
-19 -275 0
12 276 -277 0
10 276 -277 0
13 276 -277 0
-276 277 0
-10 -12 -13 -276 0
31 37 277 -278 0
31 -43 277 -278 0
-31 -277 0
-277 278 0
-37 43 -277 0
44 -266 278 279 -280 0
266 -278 0
-278 -279 0
-44 -278 0
-278 280 0
-56 279 -667 0
-279 667 0
56 -279 0
280 -670 -671 0
280 -669 672 0
280 -669 -671 0
280 -670 672 0
-280 671 -672 0
-280 669 670 0
281 -282 -291 0
281 282 291 0
-281 282 -291 0
-281 -282 291 0
282 -287 304 0
103 282 283 -287 0
-282 287 0
-282 -283 -304 0
-103 -282 -304 0
283 284 -423 0
-80 283 -286 423 0
-283 -284 -423 0
80 -283 423 0
-283 286 423 0
-80 284 -285 0
80 -284 0
-284 285 0
285 -623 -625 0
76 285 623 0
285 -623 -629 0
-76 -285 623 0
-285 -623 625 629 0
286 -623 625 631 0
-286 623 0
-286 -631 0
-286 -625 0
-251 287 -288 289 0
-251 283 287 289 0
251 -287 0
-287 -289 0
-283 -287 288 0
288 479 480 0
-288 -479 0
-288 -480 0
284 289 -290 0
249 -283 289 0
249 289 -290 0
-283 284 289 0
283 -289 290 0
-249 -284 -289 0
-248 290 304 0
-290 -304 0
248 -290 0
291 -295 667 0
56 291 292 -295 0
-291 295 0
-291 -292 -667 0
-56 -291 -667 0
292 293 -786 0
-273 292 786 965 0
-292 786 -965 0
-292 -293 -786 0
273 -292 786 0
-30 293 -294 0
30 -293 0
-293 294 0
294 -957 -959 0
44 294 957 0
294 -957 -963 0
-44 -294 957 0
-294 -957 959 963 0
-265 295 -296 297 0
-265 292 295 297 0
265 -295 0
-295 -297 0
-292 -295 296 0
296 842 843 0
-296 -842 0
-296 -843 0
293 297 -298 0
262 -292 297 0
262 297 -298 0
-292 293 297 0
292 -297 298 0
-262 -293 -297 0
-261 298 667 0
-298 -667 0
261 -298 0
-201 -233 299 0
213 224 299 0
-201 224 299 0
213 -233 299 0
201 -213 -299 0
-224 233 -299 0
76 -255 300 301 -302 0
255 -300 0
-300 -301 0
-76 -300 0
-300 302 0
88 92 94 301 0
-88 -301 0
-94 -301 0
-92 -301 0
-67 81 270 302 -303 0
-302 303 0
-270 -302 0
67 -302 0
-81 -302 0
303 -307 -308 0
303 -306 309 0
303 -306 -308 0
303 -307 309 0
-303 308 -309 0
-303 306 307 0
1 2 0
-1 -2 0
1001 0

